(declare-const havoc Int)
(declare-const |i':26:31:33| Int)
(declare-const |K:29:30:32| Int)
(assert (and (<= (- havoc) 0) (<= (+ havoc -200) 0)
               (or (not (<= (- |K:29:30:32|) 0))
                     (= (+ |i':26:31:33| |K:29:30:32| (- havoc)) 0))
               (or (and (= |K:29:30:32| 0) (= (+ (- |i':26:31:33|) havoc) 0))
                     (and (<= (+ (- |K:29:30:32|) 1) 0)
                            (<= (+ (- havoc) 1) 0) (<= (- |i':26:31:33|) 0)))
               (<= (- |K:29:30:32|) 0) (<= (- |i':26:31:33|) 0)
               (<= |i':26:31:33| 0) (not (<= (- |i':26:31:33|) 0))))
(check-sat)
